language Essence 1.3

letting class be
        function(1 --> 4, 2 --> 6, 3 --> 1, 4 --> 7, 5 --> 8, 6 --> 7, 7 --> 5, 8 --> 2, 9 --> 2, 10 --> 2, 11 --> 6,
                 12 --> 9, 13 --> 3, 14 --> 9, 15 --> 9, 16 --> 5, 17 --> 5, 18 --> 1, 19 --> 1, 20 --> 4, 21 --> 7,
                 22 --> 3, 23 --> 5, 24 --> 9, 25 --> 7, 26 --> 3)
letting deck_length be 95
letting deck_width be 28
letting length be
        function(1 --> 1, 2 --> 1, 3 --> 1, 4 --> 1, 5 --> 1, 6 --> 2, 7 --> 3, 8 --> 2, 9 --> 1, 10 --> 1, 11 --> 2,
                 12 --> 1, 13 --> 28, 14 --> 1, 15 --> 1, 16 --> 6, 17 --> 1, 18 --> 1, 19 --> 1, 20 --> 3, 21 --> 1,
                 22 --> 1, 23 --> 4, 24 --> 1, 25 --> 5, 26 --> 2)
letting n_classes be 9
letting n_containers be 26
letting separation be function({1, 2} --> 66, {1, 4} --> 31)
letting width be
        function(1 --> 9, 2 --> 4, 3 --> 14, 4 --> 11, 5 --> 6, 6 --> 23, 7 --> 27, 8 --> 1, 9 --> 9, 10 --> 7,
                 11 --> 20, 12 --> 18, 13 --> 27, 14 --> 11, 15 --> 9, 16 --> 27, 17 --> 16, 18 --> 14, 19 --> 11,
                 20 --> 19, 21 --> 5, 22 --> 19, 23 --> 23, 24 --> 16, 25 --> 24, 26 --> 17)
